experiment/data/lkh-res/Vrp-Set-X-n439/Vrp-Set-X-n439-lkh/0.lkh1.vrp
NAME : 0
COMMENT : CVRP Instance
TYPE : CVRP
DIMENSION : 439
EDGE_WEIGHT_TYPE : EUC_2D
CAPACITY : 12
NODE_COORD_SECTION
1	50000	50000
2	76900	25900
3	9100	37700
4	10800	33800
5	81600	56700
6	69800	34100
7	74100	23700
8	60100	14000
9	6300	35900
10	21500	60800
11	97900	91400
12	91100	69700
13	44000	59300
14	92200	76500
15	18500	75600
16	48600	15800
17	99300	62800
18	24100	3300
19	20000	75600
20	85600	44000
21	47100	71200
22	92900	64900
23	81100	4400
24	12500	72700
25	83000	48400
26	56800	36600
27	26100	39400
28	47800	96500
29	72600	47400
30	6800	95200
31	74700	71600
32	67800	36600
33	1700	60300
34	16900	68900
35	91600	56500
36	56400	91300
37	26800	68100
38	93700	87800
39	37000	63400
40	55500	84700
41	24600	91100
42	26700	33300
43	16600	25700
44	14700	17900
45	41800	38300
46	38200	88600
47	31200	91100
48	41600	18600
49	45700	58200
50	33400	88200
51	26900	71000
52	51300	91000
53	73900	88200
54	50300	68200
55	45100	91100
56	17100	65600
57	84300	4400
58	9400	16500
59	72600	41100
60	19700	49800
61	4900	72600
62	64500	22400
63	91500	24700
64	98100	77500
65	84400	97300
66	51900	26800
67	29100	9700
68	98600	58900
69	41400	71900
70	40700	72000
71	8200	78200
72	25500	31200
73	15100	29100
74	83100	52000
75	97000	76000
76	91200	7700
77	15000	90900
78	63800	62400
79	58500	63000
80	65500	28700
81	70800	17800
82	50300	50400
83	1400	63400
84	26100	10600
85	82500	59900
86	43300	64600
87	29800	15300
88	8800	97000
89	70400	5800
90	25800	5200
91	93000	20900
92	57000	7200
93	25200	33800
94	14100	74100
95	35300	96600
96	71800	88000
97	58100	60800
98	6900	24600
99	46900	22500
100	62300	61900
101	50100	92900
102	35900	11700
103	12800	93100
104	95300	78600
105	3000	75200
106	15700	41900
107	63700	66800
108	45400	64000
109	88800	42000
110	93700	23100
111	25200	16100
112	45300	70800
113	99500	66600
114	99800	15100
115	68700	77800
116	35000	28100
117	97700	11300
118	97000	79000
119	60400	2100
120	12800	91700
121	66400	77700
122	31000	27500
123	12200	4000
124	84600	93700
125	58600	56100
126	80600	75100
127	31200	12300
128	13900	93000
129	47900	76000
130	6900	87500
131	69800	19700
132	72600	25000
133	78200	56100
134	4300	32000
135	75700	33100
136	89800	51800
137	13300	54100
138	49700	27900
139	41800	23400
140	2500	11800
141	88000	16600
142	52900	95700
143	56500	75800
144	6000	70100
145	56700	29500
146	6600	7200
147	53500	39100
148	3000	68300
149	44700	67700
150	36200	36500
151	61800	76600
152	54000	74700
153	97200	44900
154	50000	8600
155	55500	15400
156	27500	34100
157	29900	64400
158	89000	50400
159	4200	97000
160	49600	17700
161	78900	67900
162	77000	40200
163	22900	26400
164	54500	73500
165	50400	86700
166	70800	58000
167	21800	23200
168	33900	76000
169	71000	91000
170	9900	35200
171	56400	70800
172	87500	76100
173	37600	39800
174	66700	4900
175	77400	66600
176	72800	51500
177	67600	31600
178	96100	51800
179	81100	72400
180	55100	56300
181	48400	53800
182	86200	62100
183	58900	63600
184	57400	71200
185	87900	32600
186	7700	73300
187	47600	80000
188	10700	53500
189	64300	83700
190	64200	24900
191	79300	75400
192	3700	87100
193	76000	61400
194	42000	7800
195	31200	67600
196	32900	32200
197	91900	9500
198	60500	14400
199	76300	88400
200	52800	76000
201	900	10600
202	21400	88700
203	32300	33800
204	25300	81900
205	62800	36500
206	59700	76100
207	12800	13800
208	70500	40000
209	57100	97900
210	93100	73900
211	76400	2600
212	16200	16900
213	33800	94700
214	71800	80700
215	76900	88200
216	48000	6000
217	63500	65700
218	29200	46700
219	13600	22800
220	59300	76900
221	86600	39000
222	31300	23900
223	81300	72700
224	1200	26000
225	64200	81700
226	27100	15400
227	19600	68200
228	33000	26100
229	25000	28300
230	35800	27300
231	95000	59800
232	24400	52400
233	58300	85800
234	38800	29500
235	67700	85300
236	74800	60800
237	25400	47100
238	30100	27000
239	11500	62300
240	15900	24600
241	90000	40000
242	29800	21600
243	31300	21900
244	39300	25200
245	84700	67600
246	27100	19700
247	42900	27500
248	28100	86500
249	84200	43600
250	32000	26800
251	23200	20200
252	50300	30200
253	36200	12800
254	38500	20100
255	22200	61500
256	95200	42600
257	58900	62700
258	40000	20900
259	14100	75700
260	73000	71000
261	24200	37800
262	17500	79100
263	19400	77700
264	19000	65100
265	31200	18700
266	73000	64600
267	36600	18100
268	5000	24800
269	35300	27000
270	65200	78400
271	30600	31600
272	39000	18500
273	76700	91600
274	64800	82000
275	95000	13400
276	25900	33600
277	21800	66600
278	40500	77800
279	17600	68700
280	68700	79600
281	28800	23300
282	16400	23000
283	63100	80000
284	47500	36400
285	64400	78700
286	38700	11500
287	43000	19500
288	84400	34700
289	15900	66500
290	38500	19500
291	77700	77900
292	78400	68800
293	80200	67100
294	27300	6800
295	11500	71900
296	20100	59100
297	12600	17800
298	32800	13800
299	17000	67300
300	4300	22700
301	76100	81100
302	96400	85900
303	94900	41200
304	28200	18700
305	64500	93700
306	8800	60800
307	46900	66200
308	19400	76000
309	30700	32200
310	36400	16300
311	81400	72600
312	4400	35700
313	24900	22200
314	75400	66300
315	45700	66600
316	30200	15900
317	68500	77200
318	22400	67800
319	11900	71700
320	36200	17200
321	66000	81700
322	39200	25200
323	61100	94000
324	42100	28200
325	36000	28000
326	31200	27200
327	35900	42200
328	93000	44900
329	72700	83900
330	36200	17400
331	86500	43500
332	86500	40300
333	65200	77100
334	64000	40800
335	57400	31100
336	20500	29800
337	63400	90200
338	32300	21900
339	37800	17000
340	29000	8600
341	90400	42100
342	43900	19200
343	31500	23000
344	89900	45000
345	62300	13800
346	23000	22000
347	24600	26800
348	15500	16700
349	16400	33700
350	2300	27100
351	43200	20200
352	36400	19400
353	29600	16600
354	34700	32200
355	94300	75300
356	20600	64100
357	79500	78000
358	79600	84900
359	19600	58500
360	18900	61100
361	30600	22500
362	81800	40900
363	9500	55000
364	79200	81900
365	72700	70700
366	19000	62400
367	16100	3200
368	73900	30200
369	76900	77800
370	63100	84900
371	6800	32000
372	95200	26900
373	31500	19900
374	19300	73400
375	60500	96900
376	13000	18500
377	41800	21400
378	32600	23600
379	97800	67100
380	95200	83600
381	34400	26900
382	27000	27100
383	77100	64700
384	39700	23800
385	19600	800
386	23800	22500
387	4900	24500
388	82600	33900
389	26600	15100
390	91400	44800
391	87800	31700
392	33200	20800
393	6800	19000
394	29800	25900
395	88300	78600
396	86500	35400
397	35600	21500
398	83900	31800
399	24300	67200
400	65200	67100
401	6600	24200
402	66800	49500
403	34300	9400
404	21500	0
405	26900	28000
406	67600	89800
407	28200	32000
408	18500	6200
409	99400	36800
410	25100	15900
411	5600	27300
412	13300	31100
413	23900	6400
414	37600	22800
415	37800	49100
416	25200	65700
417	18200	6600
418	74800	76000
419	15400	10300
420	65600	92300
421	36100	22400
422	23000	16000
423	36300	34400
424	33700	21100
425	74900	80000
426	100	29300
427	72900	31900
428	28500	65000
429	33100	1000
430	19900	63000
431	78100	44500
432	59000	25800
433	36400	20400
434	32400	22400
435	5600	41200
436	20800	23800
437	19700	73900
438	45500	39500
439	24200	22200
DEMAND_SECTION
1	0
2	1
3	1
4	1
5	1
6	1
7	1
8	1
9	1
10	1
11	1
12	1
13	1
14	1
15	1
16	1
17	1
18	1
19	1
20	1
21	1
22	1
23	1
24	1
25	1
26	1
27	1
28	1
29	1
30	1
31	1
32	1
33	1
34	1
35	1
36	1
37	1
38	1
39	1
40	1
41	1
42	1
43	1
44	1
45	1
46	1
47	1
48	1
49	1
50	1
51	1
52	1
53	1
54	1
55	1
56	1
57	1
58	1
59	1
60	1
61	1
62	1
63	1
64	1
65	1
66	1
67	1
68	1
69	1
70	1
71	1
72	1
73	1
74	1
75	1
76	1
77	1
78	1
79	1
80	1
81	1
82	1
83	1
84	1
85	1
86	1
87	1
88	1
89	1
90	1
91	1
92	1
93	1
94	1
95	1
96	1
97	1
98	1
99	1
100	1
101	1
102	1
103	1
104	1
105	1
106	1
107	1
108	1
109	1
110	1
111	1
112	1
113	1
114	1
115	1
116	1
117	1
118	1
119	1
120	1
121	1
122	1
123	1
124	1
125	1
126	1
127	1
128	1
129	1
130	1
131	1
132	1
133	1
134	1
135	1
136	1
137	1
138	1
139	1
140	1
141	1
142	1
143	1
144	1
145	1
146	1
147	1
148	1
149	1
150	1
151	1
152	1
153	1
154	1
155	1
156	1
157	1
158	1
159	1
160	1
161	1
162	1
163	1
164	1
165	1
166	1
167	1
168	1
169	1
170	1
171	1
172	1
173	1
174	1
175	1
176	1
177	1
178	1
179	1
180	1
181	1
182	1
183	1
184	1
185	1
186	1
187	1
188	1
189	1
190	1
191	1
192	1
193	1
194	1
195	1
196	1
197	1
198	1
199	1
200	1
201	1
202	1
203	1
204	1
205	1
206	1
207	1
208	1
209	1
210	1
211	1
212	1
213	1
214	1
215	1
216	1
217	1
218	1
219	1
220	1
221	1
222	1
223	1
224	1
225	1
226	1
227	1
228	1
229	1
230	1
231	1
232	1
233	1
234	1
235	1
236	1
237	1
238	1
239	1
240	1
241	1
242	1
243	1
244	1
245	1
246	1
247	1
248	1
249	1
250	1
251	1
252	1
253	1
254	1
255	1
256	1
257	1
258	1
259	1
260	1
261	1
262	1
263	1
264	1
265	1
266	1
267	1
268	1
269	1
270	1
271	1
272	1
273	1
274	1
275	1
276	1
277	1
278	1
279	1
280	1
281	1
282	1
283	1
284	1
285	1
286	1
287	1
288	1
289	1
290	1
291	1
292	1
293	1
294	1
295	1
296	1
297	1
298	1
299	1
300	1
301	1
302	1
303	1
304	1
305	1
306	1
307	1
308	1
309	1
310	1
311	1
312	1
313	1
314	1
315	1
316	1
317	1
318	1
319	1
320	1
321	1
322	1
323	1
324	1
325	1
326	1
327	1
328	1
329	1
330	1
331	1
332	1
333	1
334	1
335	1
336	1
337	1
338	1
339	1
340	1
341	1
342	1
343	1
344	1
345	1
346	1
347	1
348	1
349	1
350	1
351	1
352	1
353	1
354	1
355	1
356	1
357	1
358	1
359	1
360	1
361	1
362	1
363	1
364	1
365	1
366	1
367	1
368	1
369	1
370	1
371	1
372	1
373	1
374	1
375	1
376	1
377	1
378	1
379	1
380	1
381	1
382	1
383	1
384	1
385	1
386	1
387	1
388	1
389	1
390	1
391	1
392	1
393	1
394	1
395	1
396	1
397	1
398	1
399	1
400	1
401	1
402	1
403	1
404	1
405	1
406	1
407	1
408	1
409	1
410	1
411	1
412	1
413	1
414	1
415	1
416	1
417	1
418	1
419	1
420	1
421	1
422	1
423	1
424	1
425	1
426	1
427	1
428	1
429	1
430	1
431	1
432	1
433	1
434	1
435	1
436	1
437	1
438	1
439	1
DEPOT_SECTION
1
-1
EOF
