experiment/data/lkh-res/Vrp-Set-X-n439/Vrp-Set-X-n439-lkh/0.lkh1.log
PARAMETER_FILE = baseline_results/cvrp_lkh/Vrp-Set-X-n439/Vrp-Set-X-n439-lkh/0.lkh1.par
Reading PROBLEM_FILE: "baseline_results/cvrp_lkh/Vrp-Set-X-n439/Vrp-Set-X-n439-lkh/0.lkh1.vrp" ... done
ASCENT_CANDIDATES = 50
BACKBONE_TRIALS = 0
BACKTRACKING = NO
# BWTSP =
# CANDIDATE_FILE =
CANDIDATE_SET_TYPE = ALPHA
# DISTANCE =
DEPOT = 1
# EDGE_FILE =
EXCESS = 0.0022779
EXTERNAL_SALESMEN = 0
EXTRA_CANDIDATES = 0 
EXTRA_CANDIDATE_SET_TYPE = QUADRANT
GAIN23 = NO
GAIN_CRITERION = YES
INITIAL_PERIOD = 219
INITIAL_STEP_SIZE = 1
INITIAL_TOUR_ALGORITHM = WALK
# INITIAL_TOUR_FILE = 
INITIAL_TOUR_FRACTION = 1.000
# INPUT_TOUR_FILE = 
KICK_TYPE = 4
KICKS = 1
# MAX_BREADTH =
MAKESPAN = NO
MAX_CANDIDATES = 5 
MAX_SWAPS = 0
MAX_TRIALS = 10000
# MERGE_TOUR_FILE =
MOVE_TYPE = 5 SPECIAL
MTSP_MIN_SIZE = 1
MTSP_MAX_SIZE = 438
# MTSP_SOLUTION_FILE = 
# NONSEQUENTIAL_MOVE_TYPE = 5
# OPTIMUM =
OUTPUT_TOUR_FILE = baseline_results/cvrp_lkh/Vrp-Set-X-n439/Vrp-Set-X-n439-lkh/0.lkh1.tour
PATCHING_A = 1 
PATCHING_C = 0 
# PI_FILE = 
POPMUSIC_INITIAL_TOUR = NO
POPMUSIC_MAX_NEIGHBORS = 5
POPMUSIC_SAMPLE_SIZE = 10
POPMUSIC_SOLUTIONS = 50
POPMUSIC_TRIALS = 1
POPULATION_SIZE = 10
PRECISION = 100
PROBLEM_FILE = baseline_results/cvrp_lkh/Vrp-Set-X-n439/Vrp-Set-X-n439-lkh/0.lkh1.vrp
RECOMBINATION = IPT
RESTRICTED_SEARCH = YES
RUNS = 1
SALESMEN = 37
SCALE = 1
SEED = 1234
# SINTEF_SOLUTION_FILE = 
STOP_AT_OPTIMUM = YES
SUBGRADIENT = YES
# SUBPROBLEM_SIZE =
# SUBPROBLEM_TOUR_FILE = 
SUBSEQUENT_MOVE_TYPE = 5 SPECIAL
SUBSEQUENT_PATCHING = YES
# TIME_LIMIT =
# TOTAL_TIME_LIMIT =
# TOUR_FILE = 
TRACE_LEVEL = 1
VEHICLES = 37

Lower bound = 2404507.0, Ascent time = 0.17 sec.
Cand.min = 2, Cand.avg = 5.0, Cand.max = 5
Preprocessing time = 0.17 sec.
* 1: Cost = 0_3938090, Time = 0.38 sec. 
Writing OUTPUT_TOUR_FILE: "baseline_results/cvrp_lkh/Vrp-Set-X-n439/Vrp-Set-X-n439-lkh/0.lkh1.tour" ... done
* 5: Cost = 0_3898940, Time = 0.48 sec. 
Writing OUTPUT_TOUR_FILE: "baseline_results/cvrp_lkh/Vrp-Set-X-n439/Vrp-Set-X-n439-lkh/0.lkh1.tour" ... done
* 8: Cost = 0_3898116, Time = 0.64 sec. 
Writing OUTPUT_TOUR_FILE: "baseline_results/cvrp_lkh/Vrp-Set-X-n439/Vrp-Set-X-n439-lkh/0.lkh1.tour" ... done
* 10: Cost = 0_3898105, Time = 0.64 sec. 
Writing OUTPUT_TOUR_FILE: "baseline_results/cvrp_lkh/Vrp-Set-X-n439/Vrp-Set-X-n439-lkh/0.lkh1.tour" ... done
* 12: Cost = 0_3853297, Time = 0.66 sec. 
Writing OUTPUT_TOUR_FILE: "baseline_results/cvrp_lkh/Vrp-Set-X-n439/Vrp-Set-X-n439-lkh/0.lkh1.tour" ... done
* 15: Cost = 0_3849308, Time = 0.67 sec. 
Writing OUTPUT_TOUR_FILE: "baseline_results/cvrp_lkh/Vrp-Set-X-n439/Vrp-Set-X-n439-lkh/0.lkh1.tour" ... done
* 17: Cost = 0_3848542, Time = 0.69 sec. 
Writing OUTPUT_TOUR_FILE: "baseline_results/cvrp_lkh/Vrp-Set-X-n439/Vrp-Set-X-n439-lkh/0.lkh1.tour" ... done
* 18: Cost = 0_3848237, Time = 0.70 sec. 
Writing OUTPUT_TOUR_FILE: "baseline_results/cvrp_lkh/Vrp-Set-X-n439/Vrp-Set-X-n439-lkh/0.lkh1.tour" ... done
* 19: Cost = 0_3847587, Time = 0.71 sec. 
Writing OUTPUT_TOUR_FILE: "baseline_results/cvrp_lkh/Vrp-Set-X-n439/Vrp-Set-X-n439-lkh/0.lkh1.tour" ... done
* 20: Cost = 0_3839023, Time = 0.74 sec. 
Writing OUTPUT_TOUR_FILE: "baseline_results/cvrp_lkh/Vrp-Set-X-n439/Vrp-Set-X-n439-lkh/0.lkh1.tour" ... done
* 23: Cost = 0_3834401, Time = 0.75 sec. 
Writing OUTPUT_TOUR_FILE: "baseline_results/cvrp_lkh/Vrp-Set-X-n439/Vrp-Set-X-n439-lkh/0.lkh1.tour" ... done
* 33: Cost = 0_3833492, Time = 0.82 sec. 
Writing OUTPUT_TOUR_FILE: "baseline_results/cvrp_lkh/Vrp-Set-X-n439/Vrp-Set-X-n439-lkh/0.lkh1.tour" ... done
* 34: Cost = 0_3831650, Time = 0.82 sec. 
Writing OUTPUT_TOUR_FILE: "baseline_results/cvrp_lkh/Vrp-Set-X-n439/Vrp-Set-X-n439-lkh/0.lkh1.tour" ... done
* 44: Cost = 0_3831643, Time = 0.85 sec. 
Writing OUTPUT_TOUR_FILE: "baseline_results/cvrp_lkh/Vrp-Set-X-n439/Vrp-Set-X-n439-lkh/0.lkh1.tour" ... done
* 46: Cost = 0_3820781, Time = 0.87 sec. 
Writing OUTPUT_TOUR_FILE: "baseline_results/cvrp_lkh/Vrp-Set-X-n439/Vrp-Set-X-n439-lkh/0.lkh1.tour" ... done
* 52: Cost = 0_3810451, Time = 0.89 sec. 
Writing OUTPUT_TOUR_FILE: "baseline_results/cvrp_lkh/Vrp-Set-X-n439/Vrp-Set-X-n439-lkh/0.lkh1.tour" ... done
* 54: Cost = 0_3809379, Time = 0.89 sec. 
Writing OUTPUT_TOUR_FILE: "baseline_results/cvrp_lkh/Vrp-Set-X-n439/Vrp-Set-X-n439-lkh/0.lkh1.tour" ... done
* 67: Cost = 0_3796228, Time = 0.92 sec. 
Writing OUTPUT_TOUR_FILE: "baseline_results/cvrp_lkh/Vrp-Set-X-n439/Vrp-Set-X-n439-lkh/0.lkh1.tour" ... done
* 71: Cost = 0_3793534, Time = 0.93 sec. 
Writing OUTPUT_TOUR_FILE: "baseline_results/cvrp_lkh/Vrp-Set-X-n439/Vrp-Set-X-n439-lkh/0.lkh1.tour" ... done
* 82: Cost = 0_3787364, Time = 0.97 sec. 
Writing OUTPUT_TOUR_FILE: "baseline_results/cvrp_lkh/Vrp-Set-X-n439/Vrp-Set-X-n439-lkh/0.lkh1.tour" ... done
* 94: Cost = 0_3784829, Time = 1.01 sec. 
Writing OUTPUT_TOUR_FILE: "baseline_results/cvrp_lkh/Vrp-Set-X-n439/Vrp-Set-X-n439-lkh/0.lkh1.tour" ... done
* 99: Cost = 0_3782981, Time = 1.05 sec. 
Writing OUTPUT_TOUR_FILE: "baseline_results/cvrp_lkh/Vrp-Set-X-n439/Vrp-Set-X-n439-lkh/0.lkh1.tour" ... done
* 115: Cost = 0_3781861, Time = 1.17 sec. 
Writing OUTPUT_TOUR_FILE: "baseline_results/cvrp_lkh/Vrp-Set-X-n439/Vrp-Set-X-n439-lkh/0.lkh1.tour" ... done
* 117: Cost = 0_3781281, Time = 1.19 sec. 
Writing OUTPUT_TOUR_FILE: "baseline_results/cvrp_lkh/Vrp-Set-X-n439/Vrp-Set-X-n439-lkh/0.lkh1.tour" ... done
* 121: Cost = 0_3771185, Time = 1.22 sec. 
Writing OUTPUT_TOUR_FILE: "baseline_results/cvrp_lkh/Vrp-Set-X-n439/Vrp-Set-X-n439-lkh/0.lkh1.tour" ... done
* 132: Cost = 0_3766306, Time = 1.27 sec. 
Writing OUTPUT_TOUR_FILE: "baseline_results/cvrp_lkh/Vrp-Set-X-n439/Vrp-Set-X-n439-lkh/0.lkh1.tour" ... done
* 134: Cost = 0_3760820, Time = 1.28 sec. 
Writing OUTPUT_TOUR_FILE: "baseline_results/cvrp_lkh/Vrp-Set-X-n439/Vrp-Set-X-n439-lkh/0.lkh1.tour" ... done
* 149: Cost = 0_3759448, Time = 1.36 sec. 
Writing OUTPUT_TOUR_FILE: "baseline_results/cvrp_lkh/Vrp-Set-X-n439/Vrp-Set-X-n439-lkh/0.lkh1.tour" ... done
* 153: Cost = 0_3753240, Time = 1.37 sec. 
Writing OUTPUT_TOUR_FILE: "baseline_results/cvrp_lkh/Vrp-Set-X-n439/Vrp-Set-X-n439-lkh/0.lkh1.tour" ... done
* 164: Cost = 0_3751581, Time = 1.42 sec. 
Writing OUTPUT_TOUR_FILE: "baseline_results/cvrp_lkh/Vrp-Set-X-n439/Vrp-Set-X-n439-lkh/0.lkh1.tour" ... done
* 203: Cost = 0_3749680, Time = 1.57 sec. 
Writing OUTPUT_TOUR_FILE: "baseline_results/cvrp_lkh/Vrp-Set-X-n439/Vrp-Set-X-n439-lkh/0.lkh1.tour" ... done
* 215: Cost = 0_3746042, Time = 1.64 sec. 
Writing OUTPUT_TOUR_FILE: "baseline_results/cvrp_lkh/Vrp-Set-X-n439/Vrp-Set-X-n439-lkh/0.lkh1.tour" ... done
* 242: Cost = 0_3745582, Time = 1.73 sec. 
Writing OUTPUT_TOUR_FILE: "baseline_results/cvrp_lkh/Vrp-Set-X-n439/Vrp-Set-X-n439-lkh/0.lkh1.tour" ... done
* 246: Cost = 0_3745435, Time = 1.74 sec. 
Writing OUTPUT_TOUR_FILE: "baseline_results/cvrp_lkh/Vrp-Set-X-n439/Vrp-Set-X-n439-lkh/0.lkh1.tour" ... done
* 264: Cost = 0_3745008, Time = 1.79 sec. 
Writing OUTPUT_TOUR_FILE: "baseline_results/cvrp_lkh/Vrp-Set-X-n439/Vrp-Set-X-n439-lkh/0.lkh1.tour" ... done
* 272: Cost = 0_3743369, Time = 1.83 sec. 
Writing OUTPUT_TOUR_FILE: "baseline_results/cvrp_lkh/Vrp-Set-X-n439/Vrp-Set-X-n439-lkh/0.lkh1.tour" ... done
* 288: Cost = 0_3741580, Time = 1.96 sec. 
Writing OUTPUT_TOUR_FILE: "baseline_results/cvrp_lkh/Vrp-Set-X-n439/Vrp-Set-X-n439-lkh/0.lkh1.tour" ... done
* 300: Cost = 0_3741531, Time = 2.04 sec. 
Writing OUTPUT_TOUR_FILE: "baseline_results/cvrp_lkh/Vrp-Set-X-n439/Vrp-Set-X-n439-lkh/0.lkh1.tour" ... done
* 308: Cost = 0_3741098, Time = 2.11 sec. 
Writing OUTPUT_TOUR_FILE: "baseline_results/cvrp_lkh/Vrp-Set-X-n439/Vrp-Set-X-n439-lkh/0.lkh1.tour" ... done
* 309: Cost = 0_3733959, Time = 2.12 sec. 
Writing OUTPUT_TOUR_FILE: "baseline_results/cvrp_lkh/Vrp-Set-X-n439/Vrp-Set-X-n439-lkh/0.lkh1.tour" ... done
* 445: Cost = 0_3733207, Time = 2.72 sec. 
Writing OUTPUT_TOUR_FILE: "baseline_results/cvrp_lkh/Vrp-Set-X-n439/Vrp-Set-X-n439-lkh/0.lkh1.tour" ... done
* 450: Cost = 0_3732777, Time = 2.73 sec. 
Writing OUTPUT_TOUR_FILE: "baseline_results/cvrp_lkh/Vrp-Set-X-n439/Vrp-Set-X-n439-lkh/0.lkh1.tour" ... done
* 454: Cost = 0_3732768, Time = 2.74 sec. 
Writing OUTPUT_TOUR_FILE: "baseline_results/cvrp_lkh/Vrp-Set-X-n439/Vrp-Set-X-n439-lkh/0.lkh1.tour" ... done
* 462: Cost = 0_3731238, Time = 2.78 sec. 
Writing OUTPUT_TOUR_FILE: "baseline_results/cvrp_lkh/Vrp-Set-X-n439/Vrp-Set-X-n439-lkh/0.lkh1.tour" ... done
* 486: Cost = 0_3726938, Time = 3.05 sec. 
Writing OUTPUT_TOUR_FILE: "baseline_results/cvrp_lkh/Vrp-Set-X-n439/Vrp-Set-X-n439-lkh/0.lkh1.tour" ... done
* 498: Cost = 0_3726413, Time = 3.13 sec. 
Writing OUTPUT_TOUR_FILE: "baseline_results/cvrp_lkh/Vrp-Set-X-n439/Vrp-Set-X-n439-lkh/0.lkh1.tour" ... done
* 503: Cost = 0_3725570, Time = 3.14 sec. 
Writing OUTPUT_TOUR_FILE: "baseline_results/cvrp_lkh/Vrp-Set-X-n439/Vrp-Set-X-n439-lkh/0.lkh1.tour" ... done
* 530: Cost = 0_3725373, Time = 3.24 sec. 
Writing OUTPUT_TOUR_FILE: "baseline_results/cvrp_lkh/Vrp-Set-X-n439/Vrp-Set-X-n439-lkh/0.lkh1.tour" ... done
* 542: Cost = 0_3725346, Time = 3.32 sec. 
Writing OUTPUT_TOUR_FILE: "baseline_results/cvrp_lkh/Vrp-Set-X-n439/Vrp-Set-X-n439-lkh/0.lkh1.tour" ... done
* 609: Cost = 0_3724842, Time = 3.74 sec. 
Writing OUTPUT_TOUR_FILE: "baseline_results/cvrp_lkh/Vrp-Set-X-n439/Vrp-Set-X-n439-lkh/0.lkh1.tour" ... done
* 691: Cost = 0_3721141, Time = 4.15 sec. 
Writing OUTPUT_TOUR_FILE: "baseline_results/cvrp_lkh/Vrp-Set-X-n439/Vrp-Set-X-n439-lkh/0.lkh1.tour" ... done
* 699: Cost = 0_3720985, Time = 4.19 sec. 
Writing OUTPUT_TOUR_FILE: "baseline_results/cvrp_lkh/Vrp-Set-X-n439/Vrp-Set-X-n439-lkh/0.lkh1.tour" ... done
* 754: Cost = 0_3720530, Time = 4.41 sec. 
Writing OUTPUT_TOUR_FILE: "baseline_results/cvrp_lkh/Vrp-Set-X-n439/Vrp-Set-X-n439-lkh/0.lkh1.tour" ... done
* 959: Cost = 0_3720474, Time = 5.38 sec. 
Writing OUTPUT_TOUR_FILE: "baseline_results/cvrp_lkh/Vrp-Set-X-n439/Vrp-Set-X-n439-lkh/0.lkh1.tour" ... done
* 961: Cost = 0_3720048, Time = 5.39 sec. 
Writing OUTPUT_TOUR_FILE: "baseline_results/cvrp_lkh/Vrp-Set-X-n439/Vrp-Set-X-n439-lkh/0.lkh1.tour" ... done
* 1002: Cost = 0_3719706, Time = 5.62 sec. 
Writing OUTPUT_TOUR_FILE: "baseline_results/cvrp_lkh/Vrp-Set-X-n439/Vrp-Set-X-n439-lkh/0.lkh1.tour" ... done
* 1026: Cost = 0_3719138, Time = 5.78 sec. 
Writing OUTPUT_TOUR_FILE: "baseline_results/cvrp_lkh/Vrp-Set-X-n439/Vrp-Set-X-n439-lkh/0.lkh1.tour" ... done
* 1038: Cost = 0_3718559, Time = 5.84 sec. 
Writing OUTPUT_TOUR_FILE: "baseline_results/cvrp_lkh/Vrp-Set-X-n439/Vrp-Set-X-n439-lkh/0.lkh1.tour" ... done
* 1044: Cost = 0_3718325, Time = 5.87 sec. 
Writing OUTPUT_TOUR_FILE: "baseline_results/cvrp_lkh/Vrp-Set-X-n439/Vrp-Set-X-n439-lkh/0.lkh1.tour" ... done
* 1078: Cost = 0_3718197, Time = 6.09 sec. 
Writing OUTPUT_TOUR_FILE: "baseline_results/cvrp_lkh/Vrp-Set-X-n439/Vrp-Set-X-n439-lkh/0.lkh1.tour" ... done
* 1157: Cost = 0_3718071, Time = 6.65 sec. 
Writing OUTPUT_TOUR_FILE: "baseline_results/cvrp_lkh/Vrp-Set-X-n439/Vrp-Set-X-n439-lkh/0.lkh1.tour" ... done
* 1201: Cost = 0_3717811, Time = 6.91 sec. 
Writing OUTPUT_TOUR_FILE: "baseline_results/cvrp_lkh/Vrp-Set-X-n439/Vrp-Set-X-n439-lkh/0.lkh1.tour" ... done
* 1277: Cost = 0_3716070, Time = 7.31 sec. 
Writing OUTPUT_TOUR_FILE: "baseline_results/cvrp_lkh/Vrp-Set-X-n439/Vrp-Set-X-n439-lkh/0.lkh1.tour" ... done
* 1279: Cost = 0_3715077, Time = 7.33 sec. 
Writing OUTPUT_TOUR_FILE: "baseline_results/cvrp_lkh/Vrp-Set-X-n439/Vrp-Set-X-n439-lkh/0.lkh1.tour" ... done
* 1348: Cost = 0_3714952, Time = 7.65 sec. 
Writing OUTPUT_TOUR_FILE: "baseline_results/cvrp_lkh/Vrp-Set-X-n439/Vrp-Set-X-n439-lkh/0.lkh1.tour" ... done
* 1507: Cost = 0_3713357, Time = 8.55 sec. 
Writing OUTPUT_TOUR_FILE: "baseline_results/cvrp_lkh/Vrp-Set-X-n439/Vrp-Set-X-n439-lkh/0.lkh1.tour" ... done
* 1705: Cost = 0_3713337, Time = 9.67 sec. 
Writing OUTPUT_TOUR_FILE: "baseline_results/cvrp_lkh/Vrp-Set-X-n439/Vrp-Set-X-n439-lkh/0.lkh1.tour" ... done
* 1749: Cost = 0_3712614, Time = 9.89 sec. 
Writing OUTPUT_TOUR_FILE: "baseline_results/cvrp_lkh/Vrp-Set-X-n439/Vrp-Set-X-n439-lkh/0.lkh1.tour" ... done
* 1785: Cost = 0_3712333, Time = 10.20 sec. 
Writing OUTPUT_TOUR_FILE: "baseline_results/cvrp_lkh/Vrp-Set-X-n439/Vrp-Set-X-n439-lkh/0.lkh1.tour" ... done
* 1964: Cost = 0_3711699, Time = 11.04 sec. 
Writing OUTPUT_TOUR_FILE: "baseline_results/cvrp_lkh/Vrp-Set-X-n439/Vrp-Set-X-n439-lkh/0.lkh1.tour" ... done
* 2170: Cost = 0_3711157, Time = 12.09 sec. 
Writing OUTPUT_TOUR_FILE: "baseline_results/cvrp_lkh/Vrp-Set-X-n439/Vrp-Set-X-n439-lkh/0.lkh1.tour" ... done
* 2175: Cost = 0_3707825, Time = 12.11 sec. 
Writing OUTPUT_TOUR_FILE: "baseline_results/cvrp_lkh/Vrp-Set-X-n439/Vrp-Set-X-n439-lkh/0.lkh1.tour" ... done
* 2184: Cost = 0_3707380, Time = 12.19 sec. 
Writing OUTPUT_TOUR_FILE: "baseline_results/cvrp_lkh/Vrp-Set-X-n439/Vrp-Set-X-n439-lkh/0.lkh1.tour" ... done
* 2191: Cost = 0_3706204, Time = 12.24 sec. 
Writing OUTPUT_TOUR_FILE: "baseline_results/cvrp_lkh/Vrp-Set-X-n439/Vrp-Set-X-n439-lkh/0.lkh1.tour" ... done
* 2195: Cost = 0_3705700, Time = 12.25 sec. 
Writing OUTPUT_TOUR_FILE: "baseline_results/cvrp_lkh/Vrp-Set-X-n439/Vrp-Set-X-n439-lkh/0.lkh1.tour" ... done
* 2200: Cost = 0_3705267, Time = 12.29 sec. 
Writing OUTPUT_TOUR_FILE: "baseline_results/cvrp_lkh/Vrp-Set-X-n439/Vrp-Set-X-n439-lkh/0.lkh1.tour" ... done
* 2270: Cost = 0_3704913, Time = 12.65 sec. 
Writing OUTPUT_TOUR_FILE: "baseline_results/cvrp_lkh/Vrp-Set-X-n439/Vrp-Set-X-n439-lkh/0.lkh1.tour" ... done
* 2309: Cost = 0_3704666, Time = 12.83 sec. 
Writing OUTPUT_TOUR_FILE: "baseline_results/cvrp_lkh/Vrp-Set-X-n439/Vrp-Set-X-n439-lkh/0.lkh1.tour" ... done
* 2405: Cost = 0_3703889, Time = 13.41 sec. 
Writing OUTPUT_TOUR_FILE: "baseline_results/cvrp_lkh/Vrp-Set-X-n439/Vrp-Set-X-n439-lkh/0.lkh1.tour" ... done
* 2412: Cost = 0_3702031, Time = 13.45 sec. 
Writing OUTPUT_TOUR_FILE: "baseline_results/cvrp_lkh/Vrp-Set-X-n439/Vrp-Set-X-n439-lkh/0.lkh1.tour" ... done
* 2415: Cost = 0_3701986, Time = 13.47 sec. 
Writing OUTPUT_TOUR_FILE: "baseline_results/cvrp_lkh/Vrp-Set-X-n439/Vrp-Set-X-n439-lkh/0.lkh1.tour" ... done
* 2430: Cost = 0_3701332, Time = 13.57 sec. 
Writing OUTPUT_TOUR_FILE: "baseline_results/cvrp_lkh/Vrp-Set-X-n439/Vrp-Set-X-n439-lkh/0.lkh1.tour" ... done
* 2523: Cost = 0_3700647, Time = 14.16 sec. 
Writing OUTPUT_TOUR_FILE: "baseline_results/cvrp_lkh/Vrp-Set-X-n439/Vrp-Set-X-n439-lkh/0.lkh1.tour" ... done
* 2562: Cost = 0_3700638, Time = 14.37 sec. 
Writing OUTPUT_TOUR_FILE: "baseline_results/cvrp_lkh/Vrp-Set-X-n439/Vrp-Set-X-n439-lkh/0.lkh1.tour" ... done
* 2577: Cost = 0_3700507, Time = 14.54 sec. 
Writing OUTPUT_TOUR_FILE: "baseline_results/cvrp_lkh/Vrp-Set-X-n439/Vrp-Set-X-n439-lkh/0.lkh1.tour" ... done
* 2610: Cost = 0_3698635, Time = 14.69 sec. 
Writing OUTPUT_TOUR_FILE: "baseline_results/cvrp_lkh/Vrp-Set-X-n439/Vrp-Set-X-n439-lkh/0.lkh1.tour" ... done
* 2611: Cost = 0_3698628, Time = 14.70 sec. 
Writing OUTPUT_TOUR_FILE: "baseline_results/cvrp_lkh/Vrp-Set-X-n439/Vrp-Set-X-n439-lkh/0.lkh1.tour" ... done
* 2615: Cost = 0_3698051, Time = 14.72 sec. 
Writing OUTPUT_TOUR_FILE: "baseline_results/cvrp_lkh/Vrp-Set-X-n439/Vrp-Set-X-n439-lkh/0.lkh1.tour" ... done
* 2672: Cost = 0_3697907, Time = 14.97 sec. 
Writing OUTPUT_TOUR_FILE: "baseline_results/cvrp_lkh/Vrp-Set-X-n439/Vrp-Set-X-n439-lkh/0.lkh1.tour" ... done
* 3060: Cost = 0_3697440, Time = 17.43 sec. 
Writing OUTPUT_TOUR_FILE: "baseline_results/cvrp_lkh/Vrp-Set-X-n439/Vrp-Set-X-n439-lkh/0.lkh1.tour" ... done
* 3473: Cost = 0_3697414, Time = 20.28 sec. 
Writing OUTPUT_TOUR_FILE: "baseline_results/cvrp_lkh/Vrp-Set-X-n439/Vrp-Set-X-n439-lkh/0.lkh1.tour" ... done
* 3799: Cost = 0_3696151, Time = 22.09 sec. 
Writing OUTPUT_TOUR_FILE: "baseline_results/cvrp_lkh/Vrp-Set-X-n439/Vrp-Set-X-n439-lkh/0.lkh1.tour" ... done
* 3823: Cost = 0_3695814, Time = 22.26 sec. 
Writing OUTPUT_TOUR_FILE: "baseline_results/cvrp_lkh/Vrp-Set-X-n439/Vrp-Set-X-n439-lkh/0.lkh1.tour" ... done
* 3839: Cost = 0_3695487, Time = 22.32 sec. 
Writing OUTPUT_TOUR_FILE: "baseline_results/cvrp_lkh/Vrp-Set-X-n439/Vrp-Set-X-n439-lkh/0.lkh1.tour" ... done
* 4095: Cost = 0_3695369, Time = 23.92 sec. 
Writing OUTPUT_TOUR_FILE: "baseline_results/cvrp_lkh/Vrp-Set-X-n439/Vrp-Set-X-n439-lkh/0.lkh1.tour" ... done
* 5018: Cost = 0_3695319, Time = 29.00 sec. 
Writing OUTPUT_TOUR_FILE: "baseline_results/cvrp_lkh/Vrp-Set-X-n439/Vrp-Set-X-n439-lkh/0.lkh1.tour" ... done
* 5276: Cost = 0_3694762, Time = 30.28 sec. 
Writing OUTPUT_TOUR_FILE: "baseline_results/cvrp_lkh/Vrp-Set-X-n439/Vrp-Set-X-n439-lkh/0.lkh1.tour" ... done
* 5477: Cost = 0_3694729, Time = 31.46 sec. 
Writing OUTPUT_TOUR_FILE: "baseline_results/cvrp_lkh/Vrp-Set-X-n439/Vrp-Set-X-n439-lkh/0.lkh1.tour" ... done
* 6692: Cost = 0_3694200, Time = 37.76 sec. 
Writing OUTPUT_TOUR_FILE: "baseline_results/cvrp_lkh/Vrp-Set-X-n439/Vrp-Set-X-n439-lkh/0.lkh1.tour" ... done
* 6696: Cost = 0_3694158, Time = 37.79 sec. 
Writing OUTPUT_TOUR_FILE: "baseline_results/cvrp_lkh/Vrp-Set-X-n439/Vrp-Set-X-n439-lkh/0.lkh1.tour" ... done
* 6854: Cost = 0_3694002, Time = 38.65 sec. 
Writing OUTPUT_TOUR_FILE: "baseline_results/cvrp_lkh/Vrp-Set-X-n439/Vrp-Set-X-n439-lkh/0.lkh1.tour" ... done
* 7571: Cost = 0_3693858, Time = 42.08 sec. 
Writing OUTPUT_TOUR_FILE: "baseline_results/cvrp_lkh/Vrp-Set-X-n439/Vrp-Set-X-n439-lkh/0.lkh1.tour" ... done
* 8655: Cost = 0_3693751, Time = 47.59 sec. 
Writing OUTPUT_TOUR_FILE: "baseline_results/cvrp_lkh/Vrp-Set-X-n439/Vrp-Set-X-n439-lkh/0.lkh1.tour" ... done
* 8824: Cost = 0_3693679, Time = 48.67 sec. 
Writing OUTPUT_TOUR_FILE: "baseline_results/cvrp_lkh/Vrp-Set-X-n439/Vrp-Set-X-n439-lkh/0.lkh1.tour" ... done
* 8832: Cost = 0_3693178, Time = 48.72 sec. 
Writing OUTPUT_TOUR_FILE: "baseline_results/cvrp_lkh/Vrp-Set-X-n439/Vrp-Set-X-n439-lkh/0.lkh1.tour" ... done
Population:
  1: 0_3693178
Run 1: Cost = 0_3693178, Time = 54.41 sec. 

Successes/Runs = 0/1 
Cost.min = 3693178, Cost.avg = 3693178.00, Cost.max = 3693178
Gap.min = 0.0000%, Gap.avg = 0.0000%, Gap.max = 0.0000%
Penalty.min = 0, Penalty.avg = 0.00, Penalty.max = 0
Trials.min = 10000, Trials.avg = 10000.0, Trials.max = 10000
Time.min = 54.41 sec., Time.avg = 54.41 sec., Time.max = 54.41 sec.
Time.total = 54.59 sec.
  Size.min = 10, Size.max = 12, Penalty = 0
  Cost.min = 48411, Cost.max = 159353, Cost.sum = 3693178
Best CVRP solution:
  Cost = 0_3693178

