experiment/data/lkh-res/Vrp-Set-X-n439/Vrp-Set-X-n439-lkh/0.lkh1.tour
NAME : 0.3693178.tour
COMMENT : Length = 3693178
COMMENT : Found by LKH-3 [Keld Helsgaun] Tue Apr  9 08:13:49 2024
TYPE : TOUR
DIMENSION : 475
TOUR_SECTION
1
77
120
128
103
88
30
159
192
130
71
259
94
463
266
314
365
260
31
292
161
293
175
383
193
236
449
187
165
52
101
28
55
95
213
47
50
46
278
472
116
228
222
343
361
243
434
338
392
424
397
421
468
258
272
339
310
298
127
87
316
353
265
373
378
460
398
185
391
372
63
110
91
114
117
275
141
2
455
407
405
382
238
122
326
250
381
269
230
325
234
475
82
180
97
257
79
183
217
107
400
78
100
125
442
49
86
108
307
315
149
112
69
70
129
21
54
464
251
212
348
419
417
408
422
410
111
304
246
242
457
133
5
35
231
68
17
113
379
22
182
85
166
453
324
384
254
290
267
320
330
352
433
414
322
244
443
197
76
57
23
211
89
174
119
92
154
216
194
466
205
177
80
190
62
131
81
7
132
368
427
6
471
200
40
233
36
142
209
375
323
305
420
337
370
441
374
437
19
308
15
263
262
202
41
248
204
168
462
191
126
172
14
104
118
64
75
355
210
12
245
448
284
252
138
99
342
351
287
48
377
139
247
438
445
206
189
235
406
169
96
53
199
215
358
364
357
452
282
44
207
140
201
146
123
367
385
404
429
286
440
181
13
39
195
51
37
399
416
428
157
469
74
158
136
178
153
409
303
256
328
390
344
25
461
402
176
29
431
362
162
59
208
32
334
459
135
388
288
396
221
332
241
341
109
331
20
249
446
147
26
335
145
432
345
198
8
155
16
160
66
451
239
306
33
83
148
144
61
105
186
295
319
24
470
253
102
403
67
340
294
90
18
413
84
389
226
474
10
366
360
296
359
363
188
137
60
237
218
415
447
232
435
312
134
426
224
350
411
371
9
3
106
467
98
401
268
387
300
393
58
297
376
219
240
43
465
27
261
349
170
4
412
73
336
93
276
42
156
450
45
423
354
196
271
309
203
150
173
327
456
394
281
313
439
386
346
167
436
163
347
229
72
454
171
184
151
285
321
274
225
283
220
143
152
164
444
277
318
227
279
34
299
289
56
264
356
430
255
473
179
223
311
395
380
302
11
38
124
65
273
329
458
333
270
121
317
115
280
214
425
301
291
369
418
-1
EOF
